
  22    4
  10   10   10   10

   0   0   0   0   0   2 2 3 
   6  10  10  10  10   3 8 6 5 
   5  10  10  10  10   2 8 4 
   2  10  10  10  10   3 10 9 7 
   7  10  10  10  10   3 13 12 10 
   3  10  10  10  10   3 13 11 9 
   8  10  10  10  10   5 15 14 13 12 11 
   5  10  10  10  10   6 18 17 15 14 13 12 
   3  10  10  10  10   5 18 17 15 14 12 
   3  10  10  10  10   3 15 14 11 
   7  10  10  10  10   2 18 17 
   8  10  10  10  10   2 21 16 
   6  10  10  10  10   2 21 16 
   5  10  10  10  10   3 21 20 19 
   4  10  10  10  10   1 16 
   2  10  10  10  10   2 20 19 
   9  10  10  10  10   2 21 20 
   5  10  10  10  10   1 19 
   6  10  10  10  10   1 22
   2  10  10  10  10   1 22
   6  10  10  10  10   1 22
   0   0   0   0   0   0 
